82
281
496
185
443
52
137
78
498
375
384
184
160
42
132
426
314
453
486
486
494
194
470
474
140
259
173
300
82
181
183
153
101
37
77
343
273
27
219
154
447
56
139
399
417
395
374
288
72
389
372
91
332
390
426
125
267
364
287
474
130
347
14
93
56
177
78
350
229
174
387
155
143
315
208
403
488
95
413
88
2
319
437
354
